##------CONJUNTOS
set D := D1 D2 D3 D4;
set K := 1 2;

set I := F1 F2 F3 F4 F5 F6 F7 F8 F9 F10 F11 F12 F13 F14 F15 F16;

# F1 -> Excel 2299, Comuna 22
# F2 -> Excel 2298, Comuna 22
# F3 -> Excel 2297, Comuna 22
# F4 -> Excel 2201, Comuna 22
# F5 -> Excel 1596, Comuna 15
# F6 -> Excel 1501, Comuna 15
# F7 -> Excel 1599, Comuna 15
# F8 -> Excel 1503, Comuna 15
# F9 -> Excel 301, Comuna 3
# F10 -> Excel 306, Comuna 3
# F11 -> Excel 313, Comuna 3
# F12 -> Excel 314, Comuna 3
# F13 -> Excel 2098, Comuna 20
# F14 -> Excel 2006, Comuna 20
# F15 -> Excel 2001, Comuna 20
# F16 -> Excel 2099, Comuna 20

# Clústeres
set C := C1 C2 C3 C4;
set IC[C1] := F1 F2 F3 F4;
set IC[C2] := F5 F6 F7 F8;
set IC[C3] := F9 F10 F11 F12;
set IC[C4] := F13 F14 F15 F16;

# Número de vehículos por tipo y depósito
set R[D1,1] := V1 V2 V3 V4;
set R[D1,2] := K1 K2;
set R[D2,1] := V5 V6 V7 V8;
set R[D2,2] := K3;
set R[D3,1] := V9 V10 V11 V12;
set R[D3,2] := K4;
set R[D4,1] := V13 V14 V15 V16;
set R[D4,2] := K5 K6;

##------PARAMETROS GLOBALES
param Vel := 25;

##------CAPACIDAD DE VEHÍCULOS (agentes que pueden transportar)
param q :=
1 5
2 10
;

##------POLICÍAS DISPONIBLES en cada depósito
param h :=
D1 40
D2 30
D3 30
D4 40
;

##------VEHÍCULOS DISPONIBLES por tipo y depósito
param v:
	1	2 :=
D1	4	2
D2	4	1
D3	4	1
D4	4	2
;

##-----DISTANCIAS ENTRE NODOS [km]
param dist:
	F1	F2	F3	F4	F5	F6	F7	F8	F9	F10	F11	F12	F13	F14	F15	F16	D1	D2	D3	D4 :=
F1	0	1.26	3.26	2.14	6.76	8.47	6.8	9.05	10.29	10.52	11.9	12.72	7.07	7.6	7.25	8.13	10.55	15.8	6.84	11.25
F2	1.26	0	2.99	1.82	6.51	8.22	6.53	8.79	10.27	10.45	11.81	12.62	7.16	7.7	7.35	8.22	10.46	15.62	6.87	11.0
F3	3.26	2.99	0	2.51	6.31	7.91	6.09	8.46	11.53	11.43	12.72	13.44	8.92	9.47	9.12	9.96	11.33	15.88	8.44	10.65
F4	2.14	1.82	2.51	0	5.75	7.45	5.72	8.03	10.12	10.15	11.48	12.25	7.36	7.9	7.56	8.4	10.11	15.04	6.91	10.23
F5	6.76	6.51	6.31	5.75	0	2.66	1.59	3.23	8.05	7.27	8.28	8.76	7.81	8.23	7.99	8.45	6.93	10.57	6.72	5.44
F6	8.47	8.22	7.91	7.45	2.66	0	2.77	1.52	8.19	7.08	7.81	8.09	8.87	9.21	9.03	9.34	6.6	9.18	7.71	3.73
F7	6.8	6.53	6.09	5.72	1.59	2.77	0	3.32	8.7	7.9	8.88	9.33	8.36	8.79	8.55	9.04	7.54	10.93	7.29	5.52
F8	9.05	8.79	8.46	8.03	3.23	1.52	3.32	0	8.32	7.11	7.74	7.94	9.27	9.59	9.42	9.7	6.6	8.74	8.1	3.16
F9	10.29	10.27	11.53	10.12	8.05	8.19	8.7	8.32	0	2.55	3.48	4.46	5.16	4.94	5.12	4.53	3.17	8.99	4.62	8.99
F10	10.52	10.45	11.43	10.15	7.27	7.08	7.9	7.11	2.55	0	2.34	3.29	6.23	6.14	6.24	5.83	1.58	7.55	5.41	7.52
F11	11.9	11.81	12.72	11.48	8.28	7.81	8.88	7.74	3.48	2.34	0	1.94	7.53	7.39	7.53	7.03	2.35	6.47	6.77	7.69
F12	12.72	12.62	13.44	12.25	8.76	8.09	9.33	7.94	4.46	3.29	1.94	0	8.52	8.39	8.52	8.03	3.12	5.55	7.74	7.57
F13	7.07	7.16	8.92	7.36	7.81	8.87	8.36	9.27	5.16	6.23	7.53	8.52	0	1.49	1.15	2.01	6.63	12.77	2.12	10.83
F14	7.6	7.7	9.47	7.9	8.23	9.21	8.79	9.59	4.94	6.14	7.39	8.39	1.49	0	1.3	1.51	6.59	12.73	2.46	11.08
F15	7.25	7.35	9.12	7.56	7.99	9.03	8.55	9.42	5.12	6.24	7.53	8.52	1.15	1.3	0	1.84	6.66	12.8	2.27	10.96
F16	8.13	8.22	9.96	8.4	8.45	9.34	9.04	9.7	4.53	5.83	7.03	8.03	2.01	1.51	1.84	0	6.32	12.44	2.71	11.08
D1	10.55	10.46	11.33	10.11	6.93	6.6	7.54	6.6	3.17	1.58	2.35	3.12	6.63	6.59	6.66	6.32	0	7.09	5.73	6.9
D2	15.8	15.62	15.88	15.04	10.57	9.18	10.93	8.74	8.99	7.55	6.47	5.55	12.77	12.73	12.8	12.44	7.09	0	11.82	7.08
D3	6.84	6.87	8.44	6.91	6.72	7.71	7.29	8.1	4.62	5.41	6.77	7.74	2.12	2.46	2.27	2.71	5.73	11.82	0	9.66
D4	11.25	11.0	10.65	10.23	5.44	3.73	5.52	3.16	8.99	7.52	7.69	7.57	10.83	11.08	10.96	11.08	6.9	7.08	9.66	0
;

#### DEMANDA DE POLICÍAS (por nodo i)
param dem :=
F1 25
F2 125
F3 75
F4 125
F5 75
F6 75
F7 100
F8 125
F9 100
F10 50
F11 125
F12 25
F13 75
F14 125
F15 125
F16 125
;

#### DEMANDA DE VEHÍCULOS (por tipo)
param mu:
    1   2 :=
 F1  0  1
 F2  0  2
 F3  0  1
 F4  0  2
 F5  0  1
 F6  0  1
 F7  0  3
 F8  0  2
 F9  0  3
 F10  0  2
 F11  0  2
 F12  0  1
 F13  0  1
 F14  0  2
 F15  0  2
 F16  0  3
;

#### TIEMPOS DE SERVICIO [horas]
param s :=
F1 0.48
F2 2.18
F3 1.32
F4 1.77
F5 1.45
F6 1.11
F7 1.80
F8 2.38
F9 1.84
F10 0.71
F11 2.02
F12 0.40
F13 1.13
F14 2.12
F15 1.87
F16 1.88
;

#### VENTANAS DE TIEMPO [horas]
param alpha :=
F1 14
F2 12
F3 6
F4 12
F5 10
F6 9
F7 10
F8 10
F9 6
F10 6
F11 14
F12 7
F13 7
F14 12
F15 14
F16 8
;

param beta :=
F1 23
F2 22
F3 16
F4 21
F5 17
F6 14
F7 20
F8 16
F9 12
F10 16
F11 22
F12 17
F13 13
F14 21
F15 20
F16 13
;

#### PRIORIDAD DE LOS NODOS
param P :=
F1 0.123
F2 0.122
F3 0.150
F4 0.127
F5 0.729
F6 0.698
F7 0.644
F8 0.682
F9 0.517
F10 0.265
F11 0.384
F12 0.395
F13 0.329
F14 0.406
F15 0.477
F16 0.565
;

